numerics/lpfeastol = 1e-08
presolving:
(round 1, fast)       68 del vars, 165 del conss, 0 add conss, 103 chg bounds, 0 chg sides, 0 chg coeffs, 18 upgd conss, 2 impls, 5 clqs
(round 2, fast)       86 del vars, 183 del conss, 0 add conss, 121 chg bounds, 17 chg sides, 0 chg coeffs, 18 upgd conss, 2 impls, 5 clqs
(round 3, fast)       86 del vars, 183 del conss, 0 add conss, 151 chg bounds, 17 chg sides, 0 chg coeffs, 18 upgd conss, 2 impls, 5 clqs
(round 4, exhaustive) 86 del vars, 183 del conss, 0 add conss, 151 chg bounds, 17 chg sides, 0 chg coeffs, 40 upgd conss, 2 impls, 5 clqs
   (0.0s) probing cycle finished: starting next cycle
presolving (5 rounds: 5 fast, 2 medium, 2 exhaustive):
 86 deleted vars, 183 deleted constraints, 0 added constraints, 151 tightened bounds, 0 added holes, 17 changed sides, 0 changed coefficients
 48 implications, 5 cliques
presolved problem has 46 variables (16 bin, 0 int, 0 impl, 30 cont) and 46 constraints
     18 constraints of type <soc>
     17 constraints of type <varbound>
      5 constraints of type <setppc>
      6 constraints of type <linear>
Presolving Time: 0.00
numerics/lpfeastol = 1e-08

  node  | left  |LP iter|LP it/n| mem |  dualbound   | primalbound  |  gap   
      1 |     0 |    23 |     - |1324k| 0.000000e+00 |      --      |    Inf 
      1 |     0 |    31 |     - |1324k| 0.000000e+00 |      --      |    Inf 
      1 |     0 |    40 |     - |1359k| 0.000000e+00 |      --      |    Inf 
      1 |     0 |    49 |     - |1371k| 0.000000e+00 |      --      |    Inf 
      1 |     0 |    60 |     - |1375k| 0.000000e+00 |      --      |    Inf 
      1 |     0 |    65 |     - |1405k| 0.000000e+00 |      --      |    Inf 
      1 |     0 |    72 |     - |1405k| 0.000000e+00 |      --      |    Inf 
      1 |     0 |   232 |     - |1409k| 0.000000e+00 |      --      |    Inf 
      1 |     0 |   236 |     - |1411k| 0.000000e+00 |      --      |    Inf 
      1 |     0 |   242 |     - |1411k| 0.000000e+00 |      --      |    Inf 
      1 |     0 |   249 |     - |1471k| 0.000000e+00 |      --      |    Inf 
      1 |     0 |   257 |     - |1499k| 0.000000e+00 |      --      |    Inf 
      1 |     0 |   262 |     - |1499k| 0.000000e+00 |      --      |    Inf 
      1 |     0 |   265 |     - |1499k| 0.000000e+00 |      --      |    Inf 
      1 |     2 |   332 |     - |1517k| 0.000000e+00 |      --      |    Inf 
  node  | left  |LP iter|LP it/n| mem |  dualbound   | primalbound  |  gap   
*     7 |     6 |   708 | 102.5 |1609k| 0.000000e+00 | 2.168080e+00 |    Inf 
    100 |    99 |  6247 |  62.2 |2474k| 7.974889e-01 | 2.168080e+00 | 171.86%
K   107 |   106 |  6506 |  60.5 |2498k| 8.183393e-01 | 2.007386e+00 | 145.30%
*   123 |   111 |  7420 |  60.1 |2696k| 1.033572e+00 | 1.733851e+00 |  67.75%
*   146 |   118 |  8322 |  56.8 |2716k| 1.033742e+00 | 1.733851e+00 |  67.73%
*   163 |   117 |  8829 |  53.9 |2733k| 1.034037e+00 | 1.733851e+00 |  67.68%
    200 |   140 | 10385 |  51.7 |2827k| 1.034383e+00 | 1.733851e+00 |  67.62%
    300 |   162 | 13948 |  46.3 |3632k| 1.036584e+00 | 1.733851e+00 |  67.27%
*   316 |   164 | 14583 |  46.0 |3677k| 1.036627e+00 | 1.733851e+00 |  67.26%
*   324 |   162 | 14831 |  45.6 |3706k| 1.036627e+00 | 1.733851e+00 |  67.26%
*   327 |   132 | 14950 |  45.6 |3706k| 1.036627e+00 | 1.697580e+00 |  63.76%
*   376 |   114 | 16253 |  43.1 |3707k| 1.054368e+00 | 1.664399e+00 |  57.86%
*   385 |   113 | 16527 |  42.8 |3707k| 1.098992e+00 | 1.664399e+00 |  51.45%
    400 |   106 | 16800 |  41.9 |3707k| 1.235496e+00 | 1.664399e+00 |  34.72%
    500 |    52 | 18401 |  36.7 |3707k| 1.310084e+00 | 1.664399e+00 |  27.05%
  node  | left  |LP iter|LP it/n| mem |  dualbound   | primalbound  |  gap   
*   548 |    14 | 18985 |  34.5 |3707k| 1.447673e+00 | 1.664399e+00 |  14.97%

SCIP Status        : problem is solved [optimal solution found]
Solving Time (sec) : 1.59
Solving Nodes      : 564
Primal Bound       : +1.66439929478179e+00 (12 solutions)
Dual Bound         : +1.66439929478179e+00
Gap                : 0.00 %
#SOLVERNAME# SCIP_MISOCP
#SOLVER# SCIP.SCIPSolver(("limits/gap", 1.0e-5, "numerics/feastol", 1.0e-8, "limits/time", 3600.0))
#INSTANCE# estein5_nr1.cbf.gz
#TIMELIMIT# 3600.0
#STATUS# Optimal
#OBJVAL# 1.6643992947817934
#OBJBOUND# 1.6643992947817934
#NODECOUNT# NaN
#TIMESOLVER# 1.59
#TIMEALL# 1.8842639923095703
#SOLUTION# [0.7994406731354371,0.2645299820901579,0.88,0.46,0.2436924220937603,0.19028470298649736,1.034456,-0.09944067313543718,0.6954700179098421,0.5314132102234569,-0.18000000000000008,0.49999999999999994,1.034456,0.45630757790623966,0.7697152970135026,1.034456,0.08055932686456287,0.19547001790984214,0.0,-2.7755575615628914e-17,0.0,1.034456,0.6363075779062397,0.26971529701350266,0.13197090793774732,0.08055932686456287,-0.1045299820901579,1.034456,-2.7755575615628914e-17,-0.3,1.034456,0.6363075779062397,-0.030284702986497325,1.034456,-0.609440673135437,-0.004529982090157869,1.034456,-0.6900000000000001,-0.2,0.08799487137999296,-0.05369242209376035,0.06971529701350265,1.034456,-0.609440673135437,-0.20452998209015788,1.034456,-0.6900000000000001,-0.39999999999999997,0.1409147904954386,-0.05369242209376035,-0.1302847029864973,0.2114197989983142,-0.0805593268645629,-0.1954700179098421,0.5606857157468433,0.5557482510416768,0.07424527910366054,1.034456,0.6363075779062397,0.26971529701350266,0.0,0.5314132102234569,0.0,0.0,0.0,0.0,0.13197090793774732,0.0,0.0,0.0,0.0,0.08799487137999296,0.0,0.0,0.1409147904954386,0.2114197989983142,0.5606857157468433,0.0,0.0,1.0,0.0,0.0,1.0,0.0,1.0,0.0,0.0,0.0,0.0,1.0,0.0,0.0,1.0,1.0,1.0,0.0,1.0,0.0,1.0,1.0,0.0,1.0,0.0,1.0,1.0,1.0,1.0,0.0,1.0,1.0,0.0,0.0,0.0,1.0,0.0,0.5030427897765432,0.0,0.0,1.034456,0.0,0.9024850920622527,0.0,0.0,0.0,0.0,0.9464611286200071,0.0,0.0,0.8935412095045614,0.8230362010016858,0.4737702842531567,0.0]
